Version identifier: 22.1.0.0 | 2022-03-09 | 1a383f8ce
CPXPARAM_Threads                                 1
CPXPARAM_MIP_Strategy_VariableSelect             3
CPXPARAM_TimeLimit                               599.99584701900005
Tried aggregator 1 time.
MIP Presolve eliminated 12 rows and 0 columns.
MIP Presolve modified 1 coefficients.
Reduced MIP has 1018 rows, 5025 columns, and 49003 nonzeros.
Reduced MIP has 5025 binaries, 0 generals, 0 SOSs, and 0 indicators.
Presolve time = 0.03 sec. (24.61 ticks)
Found incumbent of value 0.000000 after 0.11 sec. (71.85 ticks)

Root node processing (before b&c):
  Real time             =    0.11 sec. (72.05 ticks)
Sequential b&c:
  Real time             =    0.00 sec. (0.00 ticks)
                          ------------
Total (root+branch&cut) =    0.11 sec. (72.05 ticks)
Version identifier: 22.1.0.0 | 2022-03-09 | 1a383f8ce
CPXPARAM_Threads                                 1
CPXPARAM_MIP_Strategy_VariableSelect             3
CPXPARAM_TimeLimit                               599.85899138399998
Tried aggregator 1 time.
MIP Presolve eliminated 12 rows and 0 columns.
Reduced MIP has 1518 rows, 7525 columns, and 73703 nonzeros.
Reduced MIP has 7525 binaries, 0 generals, 0 SOSs, and 0 indicators.
Presolve time = 0.05 sec. (36.54 ticks)
Probing time = 0.01 sec. (6.66 ticks)
Tried aggregator 1 time.
Detecting symmetries...
Reduced MIP has 1518 rows, 7525 columns, and 73703 nonzeros.
Reduced MIP has 7525 binaries, 0 generals, 0 SOSs, and 0 indicators.
Presolve time = 0.07 sec. (44.87 ticks)
Probing time = 0.01 sec. (6.66 ticks)
Clique table members: 900.
MIP emphasis: balance optimality and feasibility.
MIP search method: dynamic search.
Parallel mode: none, using 1 thread.
Root relaxation solution time = 0.22 sec. (224.43 ticks)

        Nodes                                         Cuts/
   Node  Left     Objective  IInf  Best Integer    Best Bound    ItCnt     Gap

      0     0        0.0000   829                      0.0000     1661         
*     0+    0                            0.0000        0.0000             0.00%
      0     0        cutoff              0.0000        0.0000     1661    0.00%
Elapsed time = 1.06 sec. (847.62 ticks, tree = 0.01 MB, solutions = 1)

Root node processing (before b&c):
  Real time             =    1.06 sec. (847.84 ticks)
Sequential b&c:
  Real time             =    0.00 sec. (0.00 ticks)
                          ------------
Total (root+branch&cut) =    1.06 sec. (847.84 ticks)
Version identifier: 22.1.0.0 | 2022-03-09 | 1a383f8ce
CPXPARAM_Threads                                 1
CPXPARAM_MIP_Strategy_VariableSelect             3
CPXPARAM_TimeLimit                               598.75142747500001
Tried aggregator 1 time.
MIP Presolve eliminated 12 rows and 0 columns.
Reduced MIP has 1768 rows, 8775 columns, and 86053 nonzeros.
Reduced MIP has 8775 binaries, 0 generals, 0 SOSs, and 0 indicators.
Presolve time = 0.05 sec. (42.57 ticks)
Probing time = 0.01 sec. (7.30 ticks)
Tried aggregator 1 time.
Detecting symmetries...
Reduced MIP has 1768 rows, 8775 columns, and 86053 nonzeros.
Reduced MIP has 8775 binaries, 0 generals, 0 SOSs, and 0 indicators.
Presolve time = 0.06 sec. (52.36 ticks)
Probing time = 0.01 sec. (7.30 ticks)
Clique table members: 1050.
MIP emphasis: balance optimality and feasibility.
MIP search method: dynamic search.
Parallel mode: none, using 1 thread.
Root relaxation solution time = 0.37 sec. (366.44 ticks)

        Nodes                                         Cuts/
   Node  Left     Objective  IInf  Best Integer    Best Bound    ItCnt     Gap

      0     0        0.0000   864                      0.0000     2175         
*     0+    0                            0.0000        0.0000             0.00%
      0     0        cutoff              0.0000        0.0000     2175    0.00%
Elapsed time = 2.28 sec. (2266.47 ticks, tree = 0.01 MB, solutions = 1)

Root node processing (before b&c):
  Real time             =    2.28 sec. (2266.73 ticks)
Sequential b&c:
  Real time             =    0.00 sec. (0.00 ticks)
                          ------------
Total (root+branch&cut) =    2.28 sec. (2266.73 ticks)
Version identifier: 22.1.0.0 | 2022-03-09 | 1a383f8ce
CPXPARAM_Threads                                 1
CPXPARAM_MIP_Strategy_VariableSelect             3
CPXPARAM_TimeLimit                               596.42331471299997
Tried aggregator 1 time.
MIP Presolve eliminated 12 rows and 0 columns.
Reduced MIP has 1893 rows, 9400 columns, and 92228 nonzeros.
Reduced MIP has 9400 binaries, 0 generals, 0 SOSs, and 0 indicators.
Presolve time = 0.06 sec. (45.55 ticks)
Probing time = 0.01 sec. (7.64 ticks)
Tried aggregator 1 time.
Detecting symmetries...
Reduced MIP has 1893 rows, 9400 columns, and 92228 nonzeros.
Reduced MIP has 9400 binaries, 0 generals, 0 SOSs, and 0 indicators.
Presolve time = 0.07 sec. (56.09 ticks)
Probing time = 0.01 sec. (7.64 ticks)
Clique table members: 1125.
MIP emphasis: balance optimality and feasibility.
MIP search method: dynamic search.
Parallel mode: none, using 1 thread.
Root relaxation solution time = 0.53 sec. (542.75 ticks)

        Nodes                                         Cuts/
   Node  Left     Objective  IInf  Best Integer    Best Bound    ItCnt     Gap

      0     0        0.0000  1007                      0.0000     2721         
*     0+    0                            0.0000        0.0000             0.00%
      0     0        cutoff              0.0000        0.0000     2721    0.00%
Elapsed time = 2.54 sec. (2436.65 ticks, tree = 0.01 MB, solutions = 1)

Root node processing (before b&c):
  Real time             =    2.54 sec. (2436.93 ticks)
Sequential b&c:
  Real time             =    0.00 sec. (0.00 ticks)
                          ------------
Total (root+branch&cut) =    2.54 sec. (2436.93 ticks)
Version identifier: 22.1.0.0 | 2022-03-09 | 1a383f8ce
CPXPARAM_Threads                                 1
CPXPARAM_MIP_Strategy_VariableSelect             3
CPXPARAM_TimeLimit                               593.82632946299998
Tried aggregator 1 time.
MIP Presolve eliminated 12 rows and 0 columns.
Reduced MIP has 1953 rows, 9700 columns, and 95192 nonzeros.
Reduced MIP has 9700 binaries, 0 generals, 0 SOSs, and 0 indicators.
Presolve time = 0.06 sec. (47.02 ticks)
Probing time = 0.01 sec. (7.75 ticks)
Tried aggregator 1 time.
Detecting symmetries...
Reduced MIP has 1953 rows, 9700 columns, and 95192 nonzeros.
Reduced MIP has 9700 binaries, 0 generals, 0 SOSs, and 0 indicators.
Presolve time = 0.07 sec. (57.90 ticks)
Probing time = 0.01 sec. (7.75 ticks)
Clique table members: 1161.
MIP emphasis: balance optimality and feasibility.
MIP search method: dynamic search.
Parallel mode: none, using 1 thread.
Root relaxation solution time = 0.57 sec. (584.76 ticks)

        Nodes                                         Cuts/
   Node  Left     Objective  IInf  Best Integer    Best Bound    ItCnt     Gap

      0     0        0.0000  1065                      0.0000     2796         
*     0+    0                            0.0000        0.0000             0.00%
      0     0        cutoff              0.0000        0.0000     2796    0.00%
Elapsed time = 3.61 sec. (3420.62 ticks, tree = 0.01 MB, solutions = 1)

Root node processing (before b&c):
  Real time             =    3.61 sec. (3420.91 ticks)
Sequential b&c:
  Real time             =    0.00 sec. (0.00 ticks)
                          ------------
Total (root+branch&cut) =    3.61 sec. (3420.91 ticks)
Version identifier: 22.1.0.0 | 2022-03-09 | 1a383f8ce
CPXPARAM_Threads                                 1
CPXPARAM_MIP_Strategy_VariableSelect             3
CPXPARAM_TimeLimit                               590.15694548199997
Tried aggregator 1 time.
MIP Presolve eliminated 12 rows and 0 columns.
Reduced MIP has 1983 rows, 9850 columns, and 96674 nonzeros.
Reduced MIP has 9850 binaries, 0 generals, 0 SOSs, and 0 indicators.
Presolve time = 0.06 sec. (47.74 ticks)
Probing time = 0.01 sec. (7.85 ticks)
Tried aggregator 1 time.
Detecting symmetries...
Reduced MIP has 1983 rows, 9850 columns, and 96674 nonzeros.
Reduced MIP has 9850 binaries, 0 generals, 0 SOSs, and 0 indicators.
Presolve time = 0.07 sec. (58.80 ticks)
Probing time = 0.01 sec. (7.85 ticks)
Clique table members: 1179.
MIP emphasis: balance optimality and feasibility.
MIP search method: dynamic search.
Parallel mode: none, using 1 thread.
Root relaxation solution time = 0.81 sec. (844.05 ticks)

        Nodes                                         Cuts/
   Node  Left     Objective  IInf  Best Integer    Best Bound    ItCnt     Gap

      0     0        0.0000  1088                      0.0000     3501         
*     0+    0                            0.0000        0.0000             0.00%
      0     0        cutoff              0.0000        0.0000     3501    0.00%
Elapsed time = 4.19 sec. (4231.07 ticks, tree = 0.01 MB, solutions = 1)

Root node processing (before b&c):
  Real time             =    4.19 sec. (4231.36 ticks)
Sequential b&c:
  Real time             =    0.00 sec. (0.00 ticks)
                          ------------
Total (root+branch&cut) =    4.19 sec. (4231.36 ticks)
Version identifier: 22.1.0.0 | 2022-03-09 | 1a383f8ce
CPXPARAM_Threads                                 1
CPXPARAM_MIP_Strategy_VariableSelect             3
CPXPARAM_TimeLimit                               585.90880503200003
Tried aggregator 1 time.
MIP Presolve eliminated 12 rows and 0 columns.
Reduced MIP has 1998 rows, 9925 columns, and 97415 nonzeros.
Reduced MIP has 9925 binaries, 0 generals, 0 SOSs, and 0 indicators.
Presolve time = 0.06 sec. (48.10 ticks)
Probing time = 0.01 sec. (7.90 ticks)
Tried aggregator 1 time.
Detecting symmetries...
Reduced MIP has 1998 rows, 9925 columns, and 97415 nonzeros.
Reduced MIP has 9925 binaries, 0 generals, 0 SOSs, and 0 indicators.
Presolve time = 0.07 sec. (59.24 ticks)
Probing time = 0.01 sec. (7.90 ticks)
Clique table members: 1188.
MIP emphasis: balance optimality and feasibility.
MIP search method: dynamic search.
Parallel mode: none, using 1 thread.
Root relaxation solution time = 0.75 sec. (769.08 ticks)

        Nodes                                         Cuts/
   Node  Left     Objective  IInf  Best Integer    Best Bound    ItCnt     Gap

      0     0        0.0000  1102                      0.0000     3363         
*     0+    0                            0.0000        0.0000             0.00%
      0     0        cutoff              0.0000        0.0000     3363    0.00%
Elapsed time = 4.49 sec. (4270.78 ticks, tree = 0.01 MB, solutions = 1)

Root node processing (before b&c):
  Real time             =    4.49 sec. (4271.07 ticks)
Sequential b&c:
  Real time             =    0.00 sec. (0.00 ticks)
                          ------------
Total (root+branch&cut) =    4.49 sec. (4271.07 ticks)
Version identifier: 22.1.0.0 | 2022-03-09 | 1a383f8ce
CPXPARAM_Threads                                 1
CPXPARAM_MIP_Strategy_VariableSelect             3
CPXPARAM_TimeLimit                               581.35550768600001
Tried aggregator 1 time.
MIP Presolve eliminated 12 rows and 0 columns.
Reduced MIP has 2008 rows, 9975 columns, and 97909 nonzeros.
Reduced MIP has 9975 binaries, 0 generals, 0 SOSs, and 0 indicators.
Presolve time = 0.06 sec. (48.36 ticks)
Probing time = 0.01 sec. (7.93 ticks)
Tried aggregator 1 time.
Detecting symmetries...
Reduced MIP has 2008 rows, 9975 columns, and 97909 nonzeros.
Reduced MIP has 9975 binaries, 0 generals, 0 SOSs, and 0 indicators.
Presolve time = 0.08 sec. (59.56 ticks)
Probing time = 0.01 sec. (7.93 ticks)
Clique table members: 1194.
MIP emphasis: balance optimality and feasibility.
MIP search method: dynamic search.
Parallel mode: none, using 1 thread.
Root relaxation solution time = 0.59 sec. (600.19 ticks)

        Nodes                                         Cuts/
   Node  Left     Objective  IInf  Best Integer    Best Bound    ItCnt     Gap

      0     0        0.0000  1164                      0.0000     2834         
*     0+    0                            0.0000        0.0000             0.00%
      0     0        cutoff              0.0000        0.0000     2834    0.00%
Elapsed time = 4.88 sec. (4998.04 ticks, tree = 0.01 MB, solutions = 1)

Root node processing (before b&c):
  Real time             =    4.88 sec. (4998.33 ticks)
Sequential b&c:
  Real time             =    0.00 sec. (0.00 ticks)
                          ------------
Total (root+branch&cut) =    4.88 sec. (4998.33 ticks)
Version identifier: 22.1.0.0 | 2022-03-09 | 1a383f8ce
CPXPARAM_Threads                                 1
CPXPARAM_MIP_Strategy_VariableSelect             3
CPXPARAM_TimeLimit                               576.41591795600004
Tried aggregator 1 time.
MIP Presolve eliminated 12 rows and 0 columns.
Reduced MIP has 2013 rows, 10000 columns, and 98156 nonzeros.
Reduced MIP has 10000 binaries, 0 generals, 0 SOSs, and 0 indicators.
Presolve time = 0.06 sec. (48.45 ticks)
Probing time = 0.01 sec. (7.95 ticks)
Tried aggregator 1 time.
Detecting symmetries...
Reduced MIP has 2013 rows, 10000 columns, and 98156 nonzeros.
Reduced MIP has 10000 binaries, 0 generals, 0 SOSs, and 0 indicators.
Presolve time = 0.07 sec. (59.70 ticks)
Probing time = 0.01 sec. (7.95 ticks)
Clique table members: 1197.
MIP emphasis: balance optimality and feasibility.
MIP search method: dynamic search.
Parallel mode: none, using 1 thread.
Root relaxation solution time = 0.74 sec. (748.67 ticks)

        Nodes                                         Cuts/
   Node  Left     Objective  IInf  Best Integer    Best Bound    ItCnt     Gap

      0     0        0.0000  1099                      0.0000     3288         
*     0+    0                            0.0000        0.0000             0.00%
      0     0        cutoff              0.0000        0.0000     3288    0.00%
Elapsed time = 5.09 sec. (5156.21 ticks, tree = 0.01 MB, solutions = 1)

Root node processing (before b&c):
  Real time             =    5.09 sec. (5156.51 ticks)
Sequential b&c:
  Real time             =    0.00 sec. (0.00 ticks)
                          ------------
Total (root+branch&cut) =    5.09 sec. (5156.51 ticks)
Primal:	400
Dual:	400
Status:	Optimal
Time:	28.7263
Sequence:
	11
	8
	12
	16
	5
	7
	19
	5
	5
	16
	7
	5
	18
	5
	5
	4
	5
	1
	9
	5
	14
	9
	14
	5
	12
	24
	5
	1
	9
	12
	7
	23
	12
	22
	9
	12
	21
	9
	15
	5
	5
	14
	23
	22
	12
	9
	7
	12
	9
	21
	12
	22
	5
	16
	21
	12
	11
	12
	5
	11
	12
	21
	9
	12
	7
	5
	12
	11
	20
	1
	9
	6
	12
	11
	12
	7
	9
	12
	7
	23
	12
	7
	20
	16
	21
	20
	1
	6
	5
	16
	21
	5
	3
	5
	0
	21
	9
	14
	20
	9
	1
	20
	20
	18
	6
	21
	16
	5
	14
	23
	1
	20
	10
	14
	20
	23
	14
	6
	7
	12
	9
	21
	0
	5
	23
	12
	20
	19
	20
	14
	23
	20
	1
	9
	21
	0
	23
	12
	7
	9
	12
	7
	23
	13
	21
	16
	21
	20
	16
	21
	6
	18
	20
	20
	18
	5
	7
	16
	20
	1
	10
	20
	1
	9
	21
	0
	23
	1
	5
	23
	13
	7
	18
	20
	5
	2
	7
	20
	16
	21
	20
	16
	8
	5
	18
	5
	5
	3
	5
	5
	0
	11
	20
	1
	9
	6
	1
	23
	21
	12
	23
	6
	14
	9
	5
	1
	23
	5
	15
	9
	7
	12
	9
	21
	13
	9
	14
	5
	7
	17
	20
	5
	3
	20
	5
	16
	7
	5
	3
	6
	20
	3
	5
	20
	13
	11
	20
	1
	23
	20
	1
	10
	5
	1
	9
	21
	13
	20
	20
	3
	7
	5
	16
	5
	20
	3
	6
	5
	16
	7
	5
	13
	7
	23
	1
	5
	23
	1
	6
	21
	16
	20
	7
	16
	21
	12
	9
	7
	0
	11
	20
	12
	11
	5
	0
	21
	23
	12
	21
	5
	16
	7
	6
	1
	9
	5
	14
	23
	13
	7
	9
	12
	5
	11
	1
	0
	5
	9
	1
	7
	23
	0
	20
	11
	1
	20
	23
	13
	20
	7
	12
	11
	5
	0
	7
	20
	3
	20
	5
	18
	5
	22
	16
	5
	5
	18
	7
	5
	13
	16
	5
	20
	1
	9
	1
	6
	23
	12
	21
	12
	8
	23
	12
	21
	9
	0
	21
	23
	14
	5
	9
	1
	20
	23
	0
	21
	18
	20
	5
	2
	5
	21
	1
	9
	20
	13
	11
	20
	12
	23
	21
	12
	9
	7
	13
	11
	12
	20
	16
	7
	7
	2
	20
	20
	18
	7
	5
	2
	5
	7
